483
210.0 417.0 
270.0 396.0 
260.0 417.0 
280.0 411.0 
250.0 380.0 
270.0 413.0 
250.0 374.0 
250.0 374.0 
280.0 402.0 
260.0 326.0 
300.0 370.0 
320.0 350.0 
320.0 360.0 
300.0 324.0 
320.0 350.0 
300.0 306.0 
300.0 238.0 
320.0 350.0 
320.0 350.0 
350.0 279.0 
350.0 236.0 
370.0 260.0 
210.0 417.0 
250.0 380.0 
270.0 396.0 
260.0 417.0 
270.0 413.0 
280.0 411.0 
250.0 374.0 
280.0 402.0 
250.0 374.0 
260.0 326.0 
320.0 360.0 
320.0 350.0 
300.0 370.0 
300.0 324.0 
320.0 350.0 
290.0 293.0 
300.0 238.0 
320.0 350.0 
320.0 350.0 
350.0 279.0 
350.0 236.0 
370.0 260.0 
210.0 417.0 
250.0 380.0 
280.0 411.0 
270.0 396.0 
260.0 417.0 
250.0 374.0 
270.0 413.0 
280.0 402.0 
250.0 374.0 
220.0 412.0 
260.0 326.0 
320.0 360.0 
320.0 350.0 
310.0 322.0 
300.0 324.0 
320.0 350.0 
300.0 370.0 
300.0 241.0 
300.0 238.0 
320.0 350.0 
320.0 350.0 
350.0 279.0 
350.0 236.0 
370.0 260.0 
210.0 417.0 
270.0 396.0 
260.0 417.0 
270.0 413.0 
280.0 411.0 
250.0 374.0 
250.0 380.0 
250.0 374.0 
280.0 402.0 
260.0 326.0 
320.0 350.0 
320.0 350.0 
300.0 370.0 
320.0 360.0 
300.0 324.0 
290.0 293.0 
300.0 238.0 
320.0 350.0 
320.0 350.0 
350.0 279.0 
350.0 236.0 
370.0 260.0 
210.0 417.0 
270.0 396.0 
260.0 417.0 
270.0 413.0 
250.0 374.0 
280.0 402.0 
250.0 380.0 
280.0 411.0 
250.0 374.0 
260.0 326.0 
300.0 370.0 
300.0 324.0 
320.0 350.0 
320.0 360.0 
320.0 350.0 
310.0 322.0 
300.0 306.0 
310.0 226.0 
350.0 279.0 
320.0 350.0 
320.0 350.0 
350.0 236.0 
370.0 260.0 
210.0 417.0 
270.0 413.0 
260.0 417.0 
270.0 396.0 
280.0 411.0 
280.0 402.0 
250.0 380.0 
250.0 374.0 
250.0 374.0 
260.0 326.0 
300.0 370.0 
320.0 360.0 
320.0 350.0 
300.0 324.0 
320.0 350.0 
300.0 306.0 
310.0 226.0 
320.0 350.0 
350.0 279.0 
320.0 350.0 
350.0 236.0 
370.0 260.0 
210.0 417.0 
270.0 396.0 
270.0 413.0 
260.0 417.0 
280.0 411.0 
250.0 380.0 
250.0 374.0 
280.0 402.0 
250.0 374.0 
220.0 412.0 
260.0 326.0 
320.0 350.0 
300.0 370.0 
320.0 360.0 
320.0 350.0 
300.0 324.0 
310.0 322.0 
300.0 241.0 
300.0 238.0 
310.0 265.0 
320.0 350.0 
320.0 350.0 
350.0 279.0 
350.0 236.0 
370.0 260.0 
210.0 417.0 
250.0 374.0 
280.0 402.0 
270.0 413.0 
270.0 396.0 
250.0 380.0 
280.0 411.0 
260.0 417.0 
250.0 374.0 
260.0 326.0 
320.0 360.0 
320.0 350.0 
300.0 370.0 
300.0 324.0 
300.0 241.0 
310.0 265.0 
300.0 238.0 
320.0 350.0 
320.0 350.0 
350.0 279.0 
350.0 236.0 
370.0 260.0 
210.0 417.0 
270.0 396.0 
270.0 413.0 
280.0 402.0 
260.0 417.0 
280.0 411.0 
250.0 374.0 
250.0 380.0 
250.0 374.0 
260.0 326.0 
300.0 370.0 
320.0 350.0 
320.0 360.0 
320.0 350.0 
310.0 322.0 
300.0 306.0 
300.0 238.0 
320.0 350.0 
320.0 350.0 
350.0 279.0 
350.0 236.0 
370.0 260.0 
210.0 417.0 
280.0 411.0 
270.0 396.0 
260.0 417.0 
270.0 413.0 
250.0 380.0 
250.0 374.0 
250.0 374.0 
280.0 402.0 
260.0 326.0 
320.0 350.0 
320.0 360.0 
300.0 324.0 
300.0 370.0 
310.0 322.0 
320.0 350.0 
300.0 241.0 
310.0 226.0 
350.0 279.0 
320.0 350.0 
320.0 350.0 
350.0 236.0 
370.0 260.0 
210.0 417.0 
250.0 374.0 
270.0 413.0 
250.0 374.0 
250.0 380.0 
270.0 396.0 
280.0 411.0 
260.0 417.0 
280.0 402.0 
260.0 326.0 
300.0 370.0 
320.0 350.0 
320.0 360.0 
320.0 350.0 
300.0 324.0 
310.0 322.0 
300.0 241.0 
310.0 226.0 
320.0 350.0 
350.0 279.0 
320.0 350.0 
370.0 260.0 
290.0 293.0 
310.0 322.0 
210.0 417.0 
280.0 411.0 
260.0 417.0 
270.0 413.0 
250.0 374.0 
270.0 396.0 
250.0 374.0 
250.0 380.0 
280.0 402.0 
260.0 326.0 
320.0 350.0 
300.0 324.0 
300.0 370.0 
320.0 350.0 
320.0 360.0 
310.0 322.0 
290.0 293.0 
310.0 265.0 
320.0 350.0 
320.0 350.0 
350.0 279.0 
290.0 293.0 
370.0 260.0 
310.0 322.0 
370.0 257.0 
210.0 417.0 
270.0 413.0 
250.0 374.0 
270.0 396.0 
250.0 374.0 
260.0 417.0 
250.0 380.0 
280.0 411.0 
280.0 402.0 
260.0 326.0 
320.0 360.0 
300.0 370.0 
300.0 324.0 
320.0 350.0 
320.0 350.0 
310.0 322.0 
300.0 306.0 
320.0 350.0 
350.0 279.0 
320.0 350.0 
370.0 260.0 
290.0 293.0 
310.0 322.0 
370.0 257.0 
310.0 265.0 
210.0 417.0 
270.0 396.0 
270.0 413.0 
260.0 417.0 
250.0 374.0 
280.0 411.0 
250.0 380.0 
280.0 402.0 
250.0 374.0 
260.0 326.0 
300.0 324.0 
320.0 350.0 
300.0 370.0 
320.0 350.0 
320.0 360.0 
310.0 322.0 
300.0 241.0 
310.0 226.0 
320.0 350.0 
320.0 350.0 
350.0 279.0 
290.0 293.0 
370.0 260.0 
350.0 233.0 
370.0 257.0 
310.0 322.0 
210.0 417.0 
270.0 396.0 
250.0 380.0 
260.0 417.0 
250.0 374.0 
250.0 374.0 
280.0 411.0 
270.0 413.0 
280.0 402.0 
260.0 326.0 
300.0 370.0 
320.0 350.0 
300.0 324.0 
320.0 350.0 
320.0 360.0 
310.0 322.0 
300.0 306.0 
300.0 238.0 
310.0 265.0 
320.0 350.0 
350.0 279.0 
320.0 350.0 
370.0 260.0 
290.0 293.0 
310.0 322.0 
370.0 257.0 
210.0 417.0 
270.0 396.0 
270.0 413.0 
260.0 417.0 
250.0 374.0 
250.0 380.0 
280.0 411.0 
250.0 374.0 
280.0 402.0 
260.0 326.0 
320.0 350.0 
300.0 370.0 
300.0 324.0 
320.0 350.0 
320.0 360.0 
310.0 322.0 
300.0 241.0 
310.0 226.0 
320.0 350.0 
320.0 350.0 
350.0 279.0 
370.0 260.0 
290.0 293.0 
370.0 257.0 
230.0 355.0 
220.0 411.0 
250.0 378.0 
230.0 355.0 
240.0 341.0 
230.0 307.0 
260.0 417.0 
250.0 374.0 
250.0 374.0 
250.0 380.0 
280.0 402.0 
270.0 413.0 
270.0 396.0 
280.0 411.0 
260.0 326.0 
300.0 324.0 
300.0 370.0 
320.0 350.0 
320.0 350.0 
320.0 360.0 
310.0 322.0 
290.0 293.0 
300.0 238.0 
310.0 265.0 
320.0 350.0 
320.0 350.0 
350.0 279.0 
370.0 260.0 
290.0 293.0 
370.0 257.0 
210.0 417.0 
280.0 411.0 
270.0 396.0 
250.0 374.0 
260.0 417.0 
250.0 374.0 
270.0 413.0 
250.0 380.0 
280.0 402.0 
260.0 326.0 
320.0 350.0 
320.0 350.0 
300.0 324.0 
300.0 370.0 
320.0 360.0 
310.0 322.0 
300.0 306.0 
310.0 265.0 
300.0 238.0 
320.0 350.0 
320.0 350.0 
350.0 279.0 
370.0 260.0 
290.0 293.0 
370.0 257.0 
210.0 417.0 
270.0 396.0 
270.0 413.0 
250.0 374.0 
250.0 374.0 
260.0 417.0 
280.0 411.0 
250.0 380.0 
280.0 402.0 
260.0 326.0 
300.0 370.0 
300.0 324.0 
320.0 350.0 
320.0 360.0 
310.0 322.0 
320.0 350.0 
300.0 306.0 
310.0 265.0 
300.0 238.0 
320.0 350.0 
320.0 350.0 
350.0 279.0 
290.0 293.0 
370.0 260.0 
370.0 260.0 
210.0 417.0 
270.0 396.0 
270.0 413.0 
250.0 374.0 
260.0 417.0 
280.0 411.0 
250.0 380.0 
280.0 402.0 
250.0 374.0 
260.0 326.0 
300.0 370.0 
320.0 350.0 
320.0 360.0 
310.0 322.0 
300.0 324.0 
320.0 350.0 
290.0 293.0 
320.0 265.0 
300.0 238.0 
310.0 265.0 
320.0 350.0 
350.0 279.0 
320.0 350.0 
370.0 260.0 
290.0 293.0 
370.0 257.0 

0 23 22 26 6 4 27 13 3 2 5 1 25 31 32 
0 23 21 6 4 27 3 13 26 22 2 5 1 7 31 32 
0 23 22 26 21 6 4 27 13 3 2 5 1 25 31 32 
0 23 21 6 4 27 13 3 2 5 1 7 28 25 31 32 
0 23 26 21 6 4 27 13 3 2 5 1 25 31 32 
0 23 21 6 4 26 22 13 27 3 2 5 1 28 25 32 
0 22 26 23 21 6 4 27 13 3 2 5 1 25 32 
0 22 23 21 6 4 26 13 27 3 2 5 1 25 32 
0 23 21 6 4 26 13 27 3 2 5 1 7 28 25 32 
0 23 21 6 4 27 13 3 2 12 5 1 25 32 
0 22 26 23 21 6 4 27 13 3 2 19 5 1 31 32 
0 23 22 26 21 6 4 27 13 3 2 19 12 5 1 32 
0 23 21 6 4 27 13 3 2 19 12 5 1 25 26 32 
0 22 26 23 21 6 4 27 13 3 19 12 2 5 32 
0 23 22 26 21 6 4 27 13 3 19 12 2 5 1 32 
0 23 21 6 4 13 3 19 12 5 1 28 25 32 
0 23 21 6 4 27 13 3 19 16 12 2 32 
0 23 22 26 21 6 4 27 13 3 2 19 12 5 1 32 
0 23 22 26 21 6 4 27 13 3 19 12 2 5 1 32 
0 23 21 6 4 27 13 3 19 16 15 12 2 26 32 
0 23 21 6 4 13 27 19 16 15 14 2 5 32 
0 23 21 6 4 27 13 3 19 16 15 14 5 1 32 
0 23 22 26 6 4 27 13 3 2 5 1 25 31 32 
0 23 26 21 6 4 27 13 3 2 5 1 25 31 32 
0 23 21 6 4 27 3 13 26 22 2 5 1 7 31 32 
0 23 22 26 21 6 4 27 13 3 2 5 1 25 31 32 
0 23 21 6 4 26 22 13 27 3 2 5 1 28 25 32 
0 23 21 6 4 27 13 3 2 5 1 7 28 25 31 32 
0 22 23 21 6 4 26 13 27 3 2 5 1 25 32 
0 23 21 6 4 26 13 27 3 2 5 1 7 28 25 32 
0 22 26 23 21 6 4 27 13 3 2 5 1 25 32 
0 23 21 6 4 27 13 3 2 12 5 1 25 32 
0 23 21 6 4 27 13 3 2 19 12 5 1 25 26 32 
0 23 22 26 21 6 4 27 13 3 2 19 12 5 1 32 
0 22 26 23 21 6 4 27 13 3 2 19 5 1 31 32 
0 22 26 23 21 6 4 27 13 3 19 12 2 5 32 
0 23 22 26 21 6 4 27 13 3 19 12 2 5 1 32 
0 22 23 21 6 4 27 13 3 19 12 5 1 32 
0 23 21 6 4 27 13 3 19 16 12 2 32 
0 23 22 26 21 6 4 27 13 3 2 19 12 5 1 32 
0 23 22 26 21 6 4 27 13 3 19 12 2 5 1 32 
0 23 21 6 4 27 13 3 19 16 15 12 2 26 32 
0 23 21 6 4 13 27 19 16 15 14 2 5 32 
0 23 21 6 4 27 13 3 19 16 15 14 5 1 32 
0 23 22 26 6 4 27 13 3 2 5 1 25 31 32 
0 23 26 21 6 4 27 13 3 2 5 1 25 31 32 
0 23 21 6 4 27 13 3 2 5 1 7 28 25 31 32 
0 23 21 6 4 27 3 13 26 22 2 5 1 7 31 32 
0 23 22 26 21 6 4 27 13 3 2 5 1 25 31 32 
0 22 26 23 21 6 4 27 13 3 2 5 1 25 32 
0 23 21 6 4 26 22 13 27 3 2 5 1 28 25 32 
0 23 21 6 4 26 13 27 3 2 5 1 7 28 25 32 
0 22 23 21 6 4 26 13 27 3 2 5 1 25 32 
0 31 25 28 11 30 7 1 5 2 3 26 22 23 32 
0 23 21 6 4 27 13 3 2 12 5 1 25 32 
0 23 21 6 4 27 13 3 2 19 12 5 1 25 26 32 
0 23 22 26 21 6 4 27 13 3 2 19 12 5 1 32 
0 23 21 6 4 27 13 3 19 12 2 5 1 31 32 
0 22 26 23 21 6 4 27 13 3 19 12 2 5 32 
0 23 22 26 21 6 4 27 13 3 19 12 2 5 1 32 
0 22 26 23 21 6 4 27 13 3 2 19 5 1 31 32 
0 23 21 6 4 13 27 19 16 12 2 5 32 
0 23 21 6 4 27 13 3 19 16 12 2 32 
0 23 22 26 21 6 4 27 13 3 19 12 2 5 1 32 
0 23 22 26 21 6 4 27 13 3 2 19 12 5 1 32 
0 23 21 6 4 27 13 3 19 16 15 12 2 26 32 
0 23 21 6 4 13 27 19 16 15 14 2 5 32 
0 23 21 6 4 27 13 3 19 16 15 14 5 1 32 
0 23 22 26 6 4 27 13 3 2 5 1 25 31 32 
0 23 21 6 4 27 3 13 26 22 2 5 1 7 31 32 
0 23 22 26 21 6 4 27 13 3 2 5 1 25 31 32 
0 23 21 6 4 26 22 13 27 3 2 5 1 28 25 32 
0 23 21 6 4 27 13 3 2 5 1 7 28 25 31 32 
0 22 23 21 6 4 26 13 27 3 2 5 1 25 32 
0 23 26 21 6 4 27 13 3 2 5 1 25 31 32 
0 22 26 23 21 6 4 27 13 3 2 5 1 25 32 
0 23 21 6 4 26 13 27 3 2 5 1 7 28 25 32 
0 23 21 6 4 27 13 3 2 12 5 1 25 32 
0 23 22 26 21 6 4 27 13 3 2 19 12 5 1 32 
0 23 22 26 21 6 4 27 13 3 19 12 2 5 1 32 
0 22 26 23 21 6 4 27 13 3 2 19 5 1 31 32 
0 23 21 6 4 27 13 3 2 19 12 5 1 25 26 32 
0 22 26 23 21 6 4 27 13 3 19 12 2 5 32 
0 22 23 21 6 4 27 13 3 19 12 5 1 32 
0 23 21 6 4 27 13 3 19 16 12 2 32 
0 23 22 26 21 6 4 27 13 3 2 19 12 5 1 32 
0 23 22 26 21 6 4 27 13 3 19 12 2 5 1 32 
0 23 21 6 4 27 13 3 19 16 15 12 2 26 32 
0 23 21 6 4 13 27 19 16 15 14 2 5 32 
0 23 21 6 4 27 13 3 19 16 15 14 5 1 32 
0 23 22 26 6 4 27 13 3 2 5 1 25 31 32 
0 23 21 6 4 27 3 13 26 22 2 5 1 7 31 32 
0 23 22 26 21 6 4 27 13 3 2 5 1 25 31 32 
0 23 21 6 4 26 22 13 27 3 2 5 1 28 25 32 
0 22 26 23 21 6 4 27 13 3 2 5 1 25 32 
0 23 21 6 4 26 13 27 3 2 5 1 7 28 25 32 
0 23 26 21 6 4 27 13 3 2 5 1 25 31 32 
0 23 21 6 4 27 13 3 2 5 1 7 28 25 31 32 
0 22 23 21 6 4 26 13 27 3 2 5 1 25 32 
0 23 21 6 4 27 13 3 2 12 5 1 25 32 
0 22 26 23 21 6 4 27 13 3 2 19 5 1 31 32 
0 22 26 23 21 6 4 27 13 3 19 12 2 5 32 
0 23 22 26 21 6 4 27 13 3 2 19 12 5 1 32 
0 23 21 6 4 27 13 3 2 19 12 5 1 25 26 32 
0 23 22 26 21 6 4 27 13 3 19 12 2 5 1 32 
0 23 21 6 4 27 13 3 19 12 2 5 1 31 32 
0 23 21 6 4 13 3 19 12 5 1 28 25 32 
0 23 21 6 4 13 3 19 16 12 2 5 32 
0 23 21 6 4 27 13 3 19 16 15 12 2 26 32 
0 23 22 26 21 6 4 27 13 3 19 12 2 5 1 32 
0 23 22 26 21 6 4 27 13 3 2 19 12 5 1 32 
0 23 21 6 4 13 27 19 16 15 14 2 5 32 
0 23 21 6 4 27 13 3 19 16 15 14 5 1 32 
0 23 22 26 6 4 27 13 3 2 5 1 25 31 32 
0 23 21 6 4 26 22 13 27 3 2 5 1 28 25 32 
0 23 22 26 21 6 4 27 13 3 2 5 1 25 31 32 
0 23 21 6 4 27 3 13 26 22 2 5 1 7 31 32 
0 23 21 6 4 27 13 3 2 5 1 7 28 25 31 32 
0 23 21 6 4 26 13 27 3 2 5 1 7 28 25 32 
0 23 26 21 6 4 27 13 3 2 5 1 25 31 32 
0 22 26 23 21 6 4 27 13 3 2 5 1 25 32 
0 22 23 21 6 4 26 13 27 3 2 5 1 25 32 
0 23 21 6 4 27 13 3 2 12 5 1 25 32 
0 22 26 23 21 6 4 27 13 3 2 19 5 1 31 32 
0 23 21 6 4 27 13 3 2 19 12 5 1 25 26 32 
0 23 22 26 21 6 4 27 13 3 2 19 12 5 1 32 
0 22 26 23 21 6 4 27 13 3 19 12 2 5 32 
0 23 22 26 21 6 4 27 13 3 19 12 2 5 1 32 
0 23 21 6 4 13 3 19 12 5 1 28 25 32 
0 23 21 6 4 13 3 19 16 12 2 5 32 
0 23 22 26 21 6 4 27 13 3 19 12 2 5 1 32 
0 23 21 6 4 27 13 3 19 16 15 12 2 26 32 
0 23 22 26 21 6 4 27 13 3 2 19 12 5 1 32 
0 23 21 6 4 13 27 19 16 15 14 2 5 32 
0 23 21 6 4 27 13 3 19 16 15 14 5 1 32 
0 23 22 26 6 4 27 13 3 2 5 1 25 31 32 
0 23 21 6 4 27 3 13 26 22 2 5 1 7 31 32 
0 23 21 6 4 26 22 13 27 3 2 5 1 28 25 32 
0 23 22 26 21 6 4 27 13 3 2 5 1 25 31 32 
0 23 21 6 4 27 13 3 2 5 1 7 28 25 31 32 
0 23 26 21 6 4 27 13 3 2 5 1 25 31 32 
0 22 26 23 21 6 4 27 13 3 2 5 1 25 32 
0 23 21 6 4 26 13 27 3 2 5 1 7 28 25 32 
0 22 23 21 6 4 26 13 27 3 2 5 1 25 32 
0 31 25 28 11 30 7 1 5 2 3 26 22 23 32 
0 23 21 6 4 27 13 3 2 12 5 1 25 32 
0 23 22 26 21 6 4 27 13 3 2 19 12 5 1 32 
0 22 26 23 21 6 4 27 13 3 2 19 5 1 31 32 
0 23 21 6 4 27 13 3 2 19 12 5 1 25 26 32 
0 23 22 26 21 6 4 27 13 3 19 12 2 5 1 32 
0 22 26 23 21 6 4 27 13 3 19 12 2 5 32 
0 23 21 6 4 27 13 3 19 12 2 5 1 31 32 
0 23 21 6 4 13 27 19 16 12 2 5 32 
0 23 21 6 4 27 13 3 19 16 12 2 32 
0 23 21 6 4 27 13 3 2 19 16 5 1 32 
0 23 22 26 21 6 4 27 13 3 2 19 12 5 1 32 
0 23 22 26 21 6 4 27 13 3 19 12 2 5 1 32 
0 23 21 6 4 27 13 3 19 16 15 12 2 26 32 
0 23 21 6 4 13 27 19 16 15 14 2 5 32 
0 23 21 6 4 27 13 3 19 16 15 14 5 1 32 
0 23 22 26 6 4 27 13 3 2 5 1 25 31 32 
0 22 26 23 21 6 4 27 13 3 2 5 1 25 32 
0 23 21 6 4 26 13 27 3 2 5 1 7 28 25 32 
0 23 21 6 4 26 22 13 27 3 2 5 1 28 25 32 
0 23 21 6 4 27 3 13 26 22 2 5 1 7 31 32 
0 23 26 21 6 4 27 13 3 2 5 1 25 31 32 
0 23 21 6 4 27 13 3 2 5 1 7 28 25 31 32 
0 23 22 26 21 6 4 27 13 3 2 5 1 25 31 32 
0 22 23 21 6 4 26 13 27 3 2 5 1 25 32 
0 23 21 6 4 27 13 3 2 12 5 1 25 32 
0 23 21 6 4 27 13 3 2 19 12 5 1 25 26 32 
0 23 22 26 21 6 4 27 13 3 2 19 12 5 1 32 
0 22 26 23 21 6 4 27 13 3 2 19 5 1 31 32 
0 22 26 23 21 6 4 27 13 3 19 12 2 5 32 
0 23 21 6 4 13 27 19 16 12 2 5 32 
0 23 21 6 4 27 13 3 2 19 16 5 1 32 
0 23 21 6 4 27 13 3 19 16 12 2 32 
0 23 22 26 21 6 4 27 13 3 2 19 12 5 1 32 
0 23 22 26 21 6 4 27 13 3 19 12 2 5 1 32 
0 23 21 6 4 27 13 3 19 16 15 12 2 26 32 
0 23 21 6 4 13 27 19 16 15 14 2 5 32 
0 23 21 6 4 27 13 3 19 16 15 14 5 1 32 
0 23 22 26 6 4 27 13 3 2 5 1 25 31 32 
0 23 21 6 4 27 3 13 26 22 2 5 1 7 31 32 
0 23 21 6 4 26 22 13 27 3 2 5 1 28 25 32 
0 23 21 6 4 26 13 27 3 2 5 1 7 28 25 32 
0 23 22 26 21 6 4 27 13 3 2 5 1 25 31 32 
0 23 21 6 4 27 13 3 2 5 1 7 28 25 31 32 
0 22 26 23 21 6 4 27 13 3 2 5 1 25 32 
0 23 26 21 6 4 27 13 3 2 5 1 25 31 32 
0 22 23 21 6 4 26 13 27 3 2 5 1 25 32 
0 23 21 6 4 27 13 3 2 12 5 1 25 32 
0 22 26 23 21 6 4 27 13 3 2 19 5 1 31 32 
0 23 22 26 21 6 4 27 13 3 2 19 12 5 1 32 
0 23 21 6 4 27 13 3 2 19 12 5 1 25 26 32 
0 23 22 26 21 6 4 27 13 3 19 12 2 5 1 32 
0 23 21 6 4 27 13 3 19 12 2 5 1 31 32 
0 23 21 6 4 13 3 19 12 5 1 28 25 32 
0 23 21 6 4 27 13 3 19 16 12 2 32 
0 23 22 26 21 6 4 27 13 3 2 19 12 5 1 32 
0 23 22 26 21 6 4 27 13 3 19 12 2 5 1 32 
0 23 21 6 4 27 13 3 19 16 15 12 2 26 32 
0 23 21 6 4 13 27 19 16 15 14 2 5 32 
0 23 21 6 4 27 13 3 19 16 15 14 5 1 32 
0 23 22 26 6 4 27 13 3 2 5 1 25 31 32 
0 23 21 6 4 27 13 3 2 5 1 7 28 25 31 32 
0 23 21 6 4 27 3 13 26 22 2 5 1 7 31 32 
0 23 22 26 21 6 4 27 13 3 2 5 1 25 31 32 
0 23 21 6 4 26 22 13 27 3 2 5 1 28 25 32 
0 23 26 21 6 4 27 13 3 2 5 1 25 31 32 
0 22 23 21 6 4 26 13 27 3 2 5 1 25 32 
0 22 26 23 21 6 4 27 13 3 2 5 1 25 32 
0 23 21 6 4 26 13 27 3 2 5 1 7 28 25 32 
0 23 21 6 4 27 13 3 2 12 5 1 25 32 
0 23 22 26 21 6 4 27 13 3 2 19 12 5 1 32 
0 23 21 6 4 27 13 3 2 19 12 5 1 25 26 32 
0 22 26 23 21 6 4 27 13 3 19 12 2 5 32 
0 22 26 23 21 6 4 27 13 3 2 19 5 1 31 32 
0 23 21 6 4 27 13 3 19 12 2 5 1 31 32 
0 23 22 26 21 6 4 27 13 3 19 12 2 5 1 32 
0 23 21 6 4 13 27 19 16 12 2 5 32 
0 23 21 6 4 13 3 19 16 12 2 5 32 
0 23 21 6 4 27 13 3 19 16 15 12 2 26 32 
0 23 22 26 21 6 4 27 13 3 19 12 2 5 1 32 
0 23 22 26 21 6 4 27 13 3 2 19 12 5 1 32 
0 23 21 6 4 13 27 19 16 15 14 2 5 32 
0 23 21 6 4 27 13 3 19 16 15 14 5 1 32 
0 23 22 26 6 4 27 13 3 2 5 1 25 31 32 
0 22 23 21 6 4 26 13 27 3 2 5 1 25 32 
0 23 21 6 4 26 22 13 27 3 2 5 1 28 25 32 
0 22 26 23 21 6 4 27 13 3 2 5 1 25 32 
0 23 26 21 6 4 27 13 3 2 5 1 25 31 32 
0 23 21 6 4 27 3 13 26 22 2 5 1 7 31 32 
0 23 21 6 4 27 13 3 2 5 1 7 28 25 31 32 
0 23 22 26 21 6 4 27 13 3 2 5 1 25 31 32 
0 23 21 6 4 26 13 27 3 2 5 1 7 28 25 32 
0 23 21 6 4 27 13 3 2 12 5 1 25 32 
0 22 26 23 21 6 4 27 13 3 2 19 5 1 31 32 
0 23 22 26 21 6 4 27 13 3 2 19 12 5 1 32 
0 23 21 6 4 27 13 3 2 19 12 5 1 25 26 32 
0 23 22 26 21 6 4 27 13 3 19 12 2 5 1 32 
0 22 26 23 21 6 4 27 13 3 19 12 2 5 32 
0 23 21 6 4 27 13 3 19 12 2 5 1 31 32 
0 23 21 6 4 13 27 19 16 12 2 5 32 
0 23 21 6 4 13 3 19 16 12 2 5 32 
0 23 22 26 21 6 4 27 13 3 2 19 12 5 1 32 
0 23 21 6 4 27 13 3 19 16 15 12 2 26 32 
0 23 22 26 21 6 4 27 13 3 19 12 2 5 1 32 
0 23 21 6 4 27 13 3 19 16 15 14 5 1 32 
0 22 23 21 6 4 27 13 3 19 12 5 1 32 
0 23 21 6 4 27 13 3 2 12 19 5 1 31 32 
0 23 22 26 6 4 27 13 3 2 5 1 25 31 32 
0 23 21 6 4 27 13 3 2 5 1 7 28 25 31 32 
0 23 22 26 21 6 4 27 13 3 2 5 1 25 31 32 
0 23 21 6 4 26 22 13 27 3 2 5 1 28 25 32 
0 22 23 21 6 4 26 13 27 3 2 5 1 25 32 
0 23 21 6 4 27 3 13 26 22 2 5 1 7 31 32 
0 22 26 23 21 6 4 27 13 3 2 5 1 25 32 
0 23 26 21 6 4 27 13 3 2 5 1 25 31 32 
0 23 21 6 4 26 13 27 3 2 5 1 7 28 25 32 
0 23 21 6 4 27 13 3 2 12 5 1 25 32 
0 23 22 26 21 6 4 27 13 3 19 12 2 5 1 32 
0 22 26 23 21 6 4 27 13 3 19 12 2 5 32 
0 22 26 23 21 6 4 27 13 3 2 19 5 1 31 32 
0 23 22 26 21 6 4 27 13 3 2 19 12 5 1 32 
0 23 21 6 4 27 13 3 2 19 12 5 1 25 26 32 
0 23 21 6 4 27 13 3 19 12 2 5 1 31 32 
0 22 23 21 6 4 27 13 3 19 12 5 1 32 
0 23 21 6 4 27 13 3 2 19 16 5 1 32 
0 23 22 26 21 6 4 27 13 3 2 19 12 5 1 32 
0 23 22 26 21 6 4 27 13 3 19 12 2 5 1 32 
0 23 21 6 4 27 13 3 19 16 15 12 2 26 32 
0 22 23 21 6 4 27 13 3 19 12 5 1 32 
0 23 21 6 4 27 13 3 19 16 15 14 5 1 32 
0 23 21 6 4 27 13 3 2 12 19 5 1 31 32 
0 23 21 6 4 27 13 3 2 19 16 15 14 5 32 
0 23 22 26 6 4 27 13 3 2 5 1 25 31 32 
0 23 21 6 4 26 22 13 27 3 2 5 1 28 25 32 
0 22 23 21 6 4 26 13 27 3 2 5 1 25 32 
0 23 21 6 4 27 3 13 26 22 2 5 1 7 31 32 
0 22 26 23 21 6 4 27 13 3 2 5 1 25 32 
0 23 22 26 21 6 4 27 13 3 2 5 1 25 31 32 
0 23 26 21 6 4 27 13 3 2 5 1 25 31 32 
0 23 21 6 4 27 13 3 2 5 1 7 28 25 31 32 
0 23 21 6 4 26 13 27 3 2 5 1 7 28 25 32 
0 23 21 6 4 27 13 3 2 12 5 1 25 32 
0 23 21 6 4 27 13 3 2 19 12 5 1 25 26 32 
0 22 26 23 21 6 4 27 13 3 2 19 5 1 31 32 
0 22 26 23 21 6 4 27 13 3 19 12 2 5 32 
0 23 22 26 21 6 4 27 13 3 19 12 2 5 1 32 
0 23 22 26 21 6 4 27 13 3 2 19 12 5 1 32 
0 23 21 6 4 27 13 3 19 12 2 5 1 31 32 
0 23 21 6 4 13 3 19 12 5 1 28 25 32 
0 23 22 26 21 6 4 27 13 3 2 19 12 5 1 32 
0 23 21 6 4 27 13 3 19 16 15 12 2 26 32 
0 23 22 26 21 6 4 27 13 3 19 12 2 5 1 32 
0 23 21 6 4 27 13 3 19 16 15 14 5 1 32 
0 22 23 21 6 4 27 13 3 19 12 5 1 32 
0 23 21 6 4 27 13 3 2 12 19 5 1 31 32 
0 23 21 6 4 27 13 3 2 19 16 15 14 5 32 
0 23 21 6 4 27 13 3 2 19 16 5 1 32 
0 23 22 26 6 4 27 13 3 2 5 1 25 31 32 
0 23 21 6 4 27 3 13 26 22 2 5 1 7 31 32 
0 23 21 6 4 26 22 13 27 3 2 5 1 28 25 32 
0 23 22 26 21 6 4 27 13 3 2 5 1 25 31 32 
0 22 26 23 21 6 4 27 13 3 2 5 1 25 32 
0 23 21 6 4 27 13 3 2 5 1 7 28 25 31 32 
0 23 26 21 6 4 27 13 3 2 5 1 25 31 32 
0 23 21 6 4 26 13 27 3 2 5 1 7 28 25 32 
0 22 23 21 6 4 26 13 27 3 2 5 1 25 32 
0 23 21 6 4 27 13 3 2 12 5 1 25 32 
0 22 26 23 21 6 4 27 13 3 19 12 2 5 32 
0 23 22 26 21 6 4 27 13 3 19 12 2 5 1 32 
0 22 26 23 21 6 4 27 13 3 2 19 5 1 31 32 
0 23 22 26 21 6 4 27 13 3 2 19 12 5 1 32 
0 23 21 6 4 27 13 3 2 19 12 5 1 25 26 32 
0 23 21 6 4 27 13 3 19 12 2 5 1 31 32 
0 23 21 6 4 13 27 19 16 12 2 5 32 
0 23 21 6 4 13 3 19 16 12 2 5 32 
0 23 22 26 21 6 4 27 13 3 2 19 12 5 1 32 
0 23 22 26 21 6 4 27 13 3 19 12 2 5 1 32 
0 23 21 6 4 27 13 3 19 16 15 12 2 26 32 
0 22 23 21 6 4 27 13 3 19 12 5 1 32 
0 23 21 6 4 27 13 3 19 16 15 14 5 1 32 
0 23 21 6 4 27 13 3 19 16 15 14 2 32 
0 23 21 6 4 27 13 3 2 19 16 15 14 5 32 
0 23 21 6 4 27 13 3 2 12 19 5 1 31 32 
0 23 22 26 6 4 27 13 3 2 5 1 25 31 32 
0 23 21 6 4 27 3 13 26 22 2 5 1 7 31 32 
0 23 26 21 6 4 27 13 3 2 5 1 25 31 32 
0 23 22 26 21 6 4 27 13 3 2 5 1 25 31 32 
0 22 23 21 6 4 26 13 27 3 2 5 1 25 32 
0 22 26 23 21 6 4 27 13 3 2 5 1 25 32 
0 23 21 6 4 27 13 3 2 5 1 7 28 25 31 32 
0 23 21 6 4 26 22 13 27 3 2 5 1 28 25 32 
0 23 21 6 4 26 13 27 3 2 5 1 7 28 25 32 
0 23 21 6 4 27 13 3 2 12 5 1 25 32 
0 22 26 23 21 6 4 27 13 3 2 19 5 1 31 32 
0 23 22 26 21 6 4 27 13 3 2 19 12 5 1 32 
0 22 26 23 21 6 4 27 13 3 19 12 2 5 32 
0 23 22 26 21 6 4 27 13 3 19 12 2 5 1 32 
0 23 21 6 4 27 13 3 2 19 12 5 1 25 26 32 
0 23 21 6 4 27 13 3 19 12 2 5 1 31 32 
0 23 21 6 4 13 3 19 12 5 1 28 25 32 
0 23 21 6 4 27 13 3 19 16 12 2 32 
0 23 21 6 4 27 13 3 2 19 16 5 1 32 
0 23 22 26 21 6 4 27 13 3 2 19 12 5 1 32 
0 23 21 6 4 27 13 3 19 16 15 12 2 26 32 
0 23 22 26 21 6 4 27 13 3 19 12 2 5 1 32 
0 23 21 6 4 27 13 3 19 16 15 14 5 1 32 
0 22 23 21 6 4 27 13 3 19 12 5 1 32 
0 23 21 6 4 27 13 3 2 12 19 5 1 31 32 
0 23 21 6 4 27 13 3 2 19 16 15 14 5 32 
0 23 22 26 6 4 27 13 3 2 5 1 25 31 32 
0 23 21 6 4 27 3 13 26 22 2 5 1 7 31 32 
0 23 21 6 4 26 22 13 27 3 2 5 1 28 25 32 
0 23 22 26 21 6 4 27 13 3 2 5 1 25 31 32 
0 22 26 23 21 6 4 27 13 3 2 5 1 25 32 
0 23 26 21 6 4 27 13 3 2 5 1 25 31 32 
0 23 21 6 4 27 13 3 2 5 1 7 28 25 31 32 
0 22 23 21 6 4 26 13 27 3 2 5 1 25 32 
0 23 21 6 4 26 13 27 3 2 5 1 7 28 25 32 
0 23 21 6 4 27 13 3 2 12 5 1 25 32 
0 23 22 26 21 6 4 27 13 3 2 19 12 5 1 32 
0 22 26 23 21 6 4 27 13 3 2 19 5 1 31 32 
0 22 26 23 21 6 4 27 13 3 19 12 2 5 32 
0 23 22 26 21 6 4 27 13 3 19 12 2 5 1 32 
0 23 21 6 4 27 13 3 2 19 12 5 1 25 26 32 
0 23 21 6 4 27 13 3 19 12 2 5 1 31 32 
0 23 21 6 4 13 27 19 16 12 2 5 32 
0 23 21 6 4 13 3 19 16 12 2 5 32 
0 23 22 26 21 6 4 27 13 3 19 12 2 5 1 32 
0 23 22 26 21 6 4 27 13 3 2 19 12 5 1 32 
0 23 21 6 4 27 13 3 19 16 15 12 2 26 32 
0 23 21 6 4 27 13 3 19 16 15 14 5 1 32 
0 22 23 21 6 4 27 13 3 19 12 5 1 32 
0 23 21 6 4 27 13 3 2 19 16 15 14 5 32 
0 22 26 23 24 21 6 4 27 13 3 5 1 32 
0 23 26 22 31 25 28 7 1 5 2 3 13 4 32 
0 23 24 21 6 4 26 22 13 27 3 2 5 1 32 
0 22 23 24 21 6 4 26 13 27 3 5 1 32 
0 23 24 21 6 4 26 13 27 3 2 5 1 32 
0 24 21 6 4 27 13 3 2 5 1 23 32 
0 23 22 26 21 6 4 27 13 3 2 5 1 25 31 32 
0 22 26 23 21 6 4 27 13 3 2 5 1 25 32 
0 22 23 21 6 4 26 13 27 3 2 5 1 25 32 
0 23 26 21 6 4 27 13 3 2 5 1 25 31 32 
0 23 21 6 4 26 13 27 3 2 5 1 7 28 25 32 
0 23 21 6 4 26 22 13 27 3 2 5 1 28 25 32 
0 23 21 6 4 27 3 13 26 22 2 5 1 7 31 32 
0 23 21 6 4 27 13 3 2 5 1 7 28 25 31 32 
0 23 21 6 4 27 13 3 2 12 5 1 25 32 
0 22 26 23 21 6 4 27 13 3 19 12 2 5 32 
0 22 26 23 21 6 4 27 13 3 2 19 5 1 31 32 
0 23 22 26 21 6 4 27 13 3 2 19 12 5 1 32 
0 23 22 26 21 6 4 27 13 3 19 12 2 5 1 32 
0 23 21 6 4 27 13 3 2 19 12 5 1 25 26 32 
0 23 21 6 4 27 13 3 19 12 2 5 1 31 32 
0 22 23 21 6 4 27 13 3 19 12 5 1 32 
0 23 21 6 4 27 13 3 19 16 12 2 32 
0 23 21 6 4 27 13 3 2 19 16 5 1 32 
0 23 22 26 21 6 4 27 13 3 2 19 12 5 1 32 
0 23 22 26 21 6 4 27 13 3 19 12 2 5 1 32 
0 23 21 6 4 27 13 3 19 16 15 12 2 26 32 
0 23 21 6 4 27 13 3 19 16 15 14 5 1 32 
0 22 23 21 6 4 27 13 3 19 12 5 1 32 
0 23 21 6 4 27 13 3 2 19 16 15 14 5 32 
0 23 22 26 6 4 27 13 3 2 5 1 25 31 32 
0 23 21 6 4 27 13 3 2 5 1 7 28 25 31 32 
0 23 21 6 4 27 3 13 26 22 2 5 1 7 31 32 
0 22 23 21 6 4 26 13 27 3 2 5 1 25 32 
0 23 22 26 21 6 4 27 13 3 2 5 1 25 31 32 
0 22 26 23 21 6 4 27 13 3 2 5 1 25 32 
0 23 21 6 4 26 22 13 27 3 2 5 1 28 25 32 
0 23 26 21 6 4 27 13 3 2 5 1 25 31 32 
0 23 21 6 4 26 13 27 3 2 5 1 7 28 25 32 
0 23 21 6 4 27 13 3 2 12 5 1 25 32 
0 23 22 26 21 6 4 27 13 3 2 19 12 5 1 32 
0 23 22 26 21 6 4 27 13 3 19 12 2 5 1 32 
0 22 26 23 21 6 4 27 13 3 19 12 2 5 32 
0 22 26 23 21 6 4 27 13 3 2 19 5 1 31 32 
0 23 21 6 4 27 13 3 2 19 12 5 1 25 26 32 
0 23 21 6 4 27 13 3 19 12 2 5 1 31 32 
0 23 21 6 4 13 3 19 12 5 1 28 25 32 
0 23 21 6 4 27 13 3 2 19 16 5 1 32 
0 23 21 6 4 27 13 3 19 16 12 2 32 
0 23 22 26 21 6 4 27 13 3 2 19 12 5 1 32 
0 23 22 26 21 6 4 27 13 3 19 12 2 5 1 32 
0 23 21 6 4 27 13 3 19 16 15 12 2 26 32 
0 23 21 6 4 27 13 3 19 16 15 14 5 1 32 
0 22 23 21 6 4 27 13 3 19 12 5 1 32 
0 23 21 6 4 27 13 3 2 19 16 15 14 5 32 
0 23 22 26 6 4 27 13 3 2 5 1 25 31 32 
0 23 21 6 4 27 3 13 26 22 2 5 1 7 31 32 
0 23 21 6 4 26 22 13 27 3 2 5 1 28 25 32 
0 22 23 21 6 4 26 13 27 3 2 5 1 25 32 
0 22 26 23 21 6 4 27 13 3 2 5 1 25 32 
0 23 22 26 21 6 4 27 13 3 2 5 1 25 31 32 
0 23 21 6 4 27 13 3 2 5 1 7 28 25 31 32 
0 23 26 21 6 4 27 13 3 2 5 1 25 31 32 
0 23 21 6 4 26 13 27 3 2 5 1 7 28 25 32 
0 23 21 6 4 27 13 3 2 12 5 1 25 32 
0 22 26 23 21 6 4 27 13 3 2 19 5 1 31 32 
0 22 26 23 21 6 4 27 13 3 19 12 2 5 32 
0 23 22 26 21 6 4 27 13 3 2 19 12 5 1 32 
0 23 21 6 4 27 13 3 2 19 12 5 1 25 26 32 
0 23 21 6 4 27 13 3 19 12 2 5 1 31 32 
0 23 22 26 21 6 4 27 13 3 19 12 2 5 1 32 
0 23 21 6 4 13 3 19 12 5 1 28 25 32 
0 23 21 6 4 27 13 3 2 19 16 5 1 32 
0 23 21 6 4 27 13 3 19 16 12 2 32 
0 23 22 26 21 6 4 27 13 3 19 12 2 5 1 32 
0 23 22 26 21 6 4 27 13 3 2 19 12 5 1 32 
0 23 21 6 4 27 13 3 19 16 15 12 2 26 32 
0 22 23 21 6 4 27 13 3 19 12 5 1 32 
0 23 21 6 4 27 13 3 19 16 15 14 5 1 32 
0 23 21 6 4 27 13 3 19 16 15 14 5 1 32 
0 23 22 26 6 4 27 13 3 2 5 1 25 31 32 
0 23 21 6 4 27 3 13 26 22 2 5 1 7 31 32 
0 23 21 6 4 26 22 13 27 3 2 5 1 28 25 32 
0 22 26 23 21 6 4 27 13 3 2 5 1 25 32 
0 23 22 26 21 6 4 27 13 3 2 5 1 25 31 32 
0 23 21 6 4 27 13 3 2 5 1 7 28 25 31 32 
0 23 26 21 6 4 27 13 3 2 5 1 25 31 32 
0 23 21 6 4 26 13 27 3 2 5 1 7 28 25 32 
0 22 23 21 6 4 26 13 27 3 2 5 1 25 32 
0 23 21 6 4 27 13 3 2 12 5 1 25 32 
0 22 26 23 21 6 4 27 13 3 2 19 5 1 31 32 
0 23 22 26 21 6 4 27 13 3 2 19 12 5 1 32 
0 23 21 6 4 27 13 3 2 19 12 5 1 25 26 32 
0 23 21 6 4 27 13 3 19 12 2 5 1 31 32 
0 22 26 23 21 6 4 27 13 3 19 12 2 5 32 
0 23 22 26 21 6 4 27 13 3 19 12 2 5 1 32 
0 22 23 21 6 4 27 13 3 19 12 5 1 32 
0 23 21 6 4 27 13 3 19 16 12 5 1 32 
0 23 21 6 4 27 13 3 19 16 12 2 32 
0 23 21 6 4 27 13 3 2 19 16 5 1 32 
0 23 22 26 21 6 4 27 13 3 19 12 2 5 1 32 
0 23 21 6 4 27 13 3 19 16 15 12 2 26 32 
0 23 22 26 21 6 4 27 13 3 2 19 12 5 1 32 
0 23 21 6 4 27 13 3 19 16 15 14 5 1 32 
0 22 23 21 6 4 27 13 3 19 12 5 1 32 
0 23 21 6 4 27 13 3 2 19 16 15 14 5 32 
